language ESSENCE' 1.0
$ minion Nodes: 1
$ minion TotalTime: 0.000372
$ Savile Row TotalTime: 0.093
letting pain_tuple1_tuple3 be [[1]]
letting pain_tuple1_tuple1 be [[1]]
letting pain_tuple1_tuple2 be [[0]]
